1980-02-02
1980-02-03
1980-02-04
1980-02-05
1980-02-06
1980-02-07
1980-02-08
1980-02-09
1980-02-10
1980-02-11
1980-02-12
1980-02-13
1980-02-14
1980-02-15
1980-02-16
1980-02-17
1980-02-18
1980-02-19
1980-02-20
1980-02-21
1980-02-22
1980-02-23
1980-02-24
1980-02-25
1980-03-20
1980-03-21
1980-03-22
1980-03-25
1980-03-26
1980-03-27
1980-04-06
1980-04-07
1980-04-08
1980-04-09
1980-04-10
1980-04-11
1980-04-12
1980-04-13
1980-04-14
1980-04-15
1980-04-16
1980-04-17
1980-04-18
1980-04-19
1980-04-20
1980-04-21
1980-04-22
1980-04-23
1980-04-24
1980-04-25
1980-04-26
1980-04-27
1980-04-28
1980-04-29
1980-04-30
1980-05-20
1980-05-21
1980-05-22
1980-05-23
1980-07-08
1980-07-09
1980-07-10
1980-07-11
1980-07-12
1980-07-13
1980-07-14
1980-07-15
1980-07-16
1980-07-17
1980-07-18
1980-07-19
1980-07-20
1980-07-21
1980-07-22
1980-07-23
1980-07-24
1980-07-25
1980-07-26
1980-07-27
1980-07-28
1980-07-29
1980-07-30
1980-07-31
1980-08-01
1980-08-02
1980-08-03
1980-08-04
1980-08-05
1980-08-06
1980-08-07
1980-08-08
1980-08-09
1981-03-13
1981-03-14
1981-03-15
1981-03-16
1981-03-17
1981-03-18
1981-03-19
1981-03-20
1981-03-21
1981-03-22
1981-03-23
1981-03-24
1981-03-25
1981-03-26
1981-03-27
1981-07-13
1981-07-14
1981-07-15
1981-07-16
1981-07-17
1981-07-18
1981-07-19
1981-07-20
1981-07-21
1981-07-22
1981-07-23
1981-07-24
1981-07-25
1981-07-26
1981-07-27
1981-07-28
1981-07-29
1981-07-30
1981-07-31
1981-08-01
1981-08-02
1982-06-29
1982-06-30
1982-07-07
1982-07-08
1982-07-09
1982-07-10
1982-07-11
1982-07-12
1982-07-13
1983-01-31
1983-02-01
1983-02-02
1983-02-03
1984-05-11
1984-05-12
1984-08-26
1984-08-27
1984-08-28
1984-08-29
1984-08-30
1984-08-31
1984-09-01
1984-09-02
1984-09-03
1984-09-04
1984-09-05
1984-09-06
1984-09-07
1984-09-08
1985-06-10
1985-06-11
1985-06-12
1986-05-29
1986-05-30
1986-10-15
1986-10-16
1986-10-17
1986-10-18
1986-10-19
1986-10-20
1987-06-30
1987-07-01
1987-07-02
1987-07-03
1987-07-04
1987-07-05
1987-07-16
1988-05-24
1988-05-25
1988-05-26
1988-05-31
1988-06-01
1988-06-07
1988-06-08
1988-06-09
1988-06-10
1988-08-15
1988-08-16
1989-08-17
1989-08-18
1989-08-19
1989-08-20
1989-08-21
1989-08-22
1989-08-23
1989-08-24
1990-04-19
1990-04-20
1990-04-21
1990-04-22
1991-06-03
1991-06-04
1991-06-05
1991-06-06
1991-06-07
1991-06-08
1991-06-09
1991-06-10
1991-06-12
1991-06-13
1991-06-14
1991-06-15
1991-07-01
1991-07-02
1991-07-03
1991-07-04
1991-07-05
1992-02-12
1992-02-13
1992-02-14
1992-02-15
1992-02-16
1992-02-17
1992-02-18
1992-02-19
1992-02-21
1992-03-10
1992-04-14
1992-04-15
1992-04-21
1992-04-23
1992-04-24
1992-04-25
1992-04-26
1992-04-27
1992-04-28
1992-04-30
1992-05-08
1992-05-09
1992-06-27
1992-06-28
1992-06-29
1992-06-30
1992-07-01
1992-07-02
1992-07-03
1992-07-04
1992-07-05
1992-07-06
1992-07-07
1992-07-08
1994-06-05
1995-07-01
1995-07-02
1995-07-03
1995-07-04
1995-07-05
1995-07-06
1995-07-07
1995-07-08
1995-07-09
1995-07-10
1995-07-11
1995-07-12
1995-07-13
1995-07-14
1995-07-15
1995-07-16
1995-07-17
1995-07-18
1995-07-19
1995-07-20
1995-07-21
1995-07-22
1995-07-23
1995-07-24
1995-07-30
1995-07-31
1995-08-01
1995-08-02
1995-08-03
1995-08-07
1996-07-12
1996-07-13
1996-09-15
1996-09-16
1996-09-20
1998-05-09
1998-05-10
1998-05-11
1998-05-12
1998-05-13
1998-05-14
1998-05-15
1998-05-16
1998-05-17
1998-05-18
1998-05-19
1998-05-20
1998-05-21
1998-05-22
2000-08-26
2000-08-27
2000-08-28
2000-10-31
2000-11-01
2000-11-02
2000-11-03
2000-11-04
2000-11-05
2000-11-06
2000-11-07
2000-11-08
2000-11-09
2000-11-10
2001-07-14
2001-07-15
2001-07-16
2001-07-17
2002-04-29
2002-04-30
2002-05-01
2002-05-02
2002-05-03
2002-05-04
2002-05-05
2002-05-06
2002-05-07
2002-05-08
2002-05-09
2002-05-10
2002-05-11
2002-05-12
2002-05-13
2002-05-14
2002-05-15
2002-05-16
2002-05-17
2002-05-18
2002-05-19
2002-05-20
2002-05-21
2002-05-22
2002-05-23
2002-05-24
2002-05-25
2002-05-26
2002-06-01
2002-06-02
2002-06-03
2002-06-04
2002-06-05
2002-06-06
2002-06-07
2002-06-08
2002-07-22
2002-07-23
2004-11-27
2004-11-28
2004-11-29
2004-11-30
2004-12-01
2004-12-02
2004-12-03
2005-06-21
2005-06-22
2005-06-23
2005-06-24
2005-12-09
2005-12-12
2005-12-13
2005-12-14
2005-12-15
2005-12-16
2005-12-17
2006-07-29
2006-07-30
2006-07-31
2006-08-01
2006-08-02
2006-08-03
2006-08-04
2006-08-05
2006-08-06
2006-08-07
2006-08-08
2006-08-09
2006-08-10
2006-08-11
2006-08-12
2006-08-13
2006-08-14
2006-08-15
2006-08-16
2006-08-17
2007-06-20
2007-06-21
2007-06-22
2007-06-23
2007-06-24
2007-06-25
2007-06-26
2007-06-27
2007-06-28
2007-06-29
2007-06-30
2007-07-01
2007-07-02
2007-07-03
2007-07-04
2007-07-05
2007-07-06
2007-07-07
2007-07-08
2007-07-09
2007-07-10
2007-07-11
2007-07-12
2007-07-13
2007-07-14
2007-07-15
2007-07-16
2007-07-17
2007-07-18
2007-07-19
2007-07-20
2007-07-21
2007-07-22
2009-05-20
2009-06-29
2009-06-30
2009-07-01
2009-07-02
2009-07-03
2009-07-04
2009-07-05
2009-07-06
2009-07-07
2009-07-08
2009-07-09
2009-07-10
2009-07-11
2009-07-12
2009-08-11
2009-08-12
2009-08-13
2009-08-14
2009-08-15
2009-08-16
2009-08-17
2009-08-18
2009-08-19
2009-08-20
2009-08-21
2009-08-22
2009-08-24
2009-08-25
2009-08-26
2009-08-27
2009-08-28
2009-08-29
2009-08-30
2009-08-31
2009-10-31
2009-11-01
2009-11-02
2009-11-03
2010-01-24
2010-01-25
2010-01-26
2010-01-27
2010-01-28
2010-01-29
2010-01-30
2010-01-31
2011-07-24
2011-07-25
2011-07-26
2011-07-27
2011-07-28
2011-07-29
2011-07-30
2011-07-31
2011-08-01
2011-08-02
2011-08-03
2011-08-04
2011-08-05
2011-08-06
2011-08-07
2011-08-08
2011-08-09
2011-08-10
2011-08-11
2011-08-12
2011-08-13
2011-08-14
2011-08-15
2011-08-16
2011-08-17
2011-08-18
